NAME : A-n45-k6
COMMENT : Augerat et al, Min no of trucks: 6, Optimal value: 944
TYPE : CVRP
DIMENSION : 45
CAPACITY : 100
EDGE_WEIGHT_TYPE : EUC_2D
NODE_COORD_SECTION
1 58 69
2 54 53
3 37 85
4 7 69
5 2 84
6 12 83
7 69 72
8 60 77
9 46 57
10 19 52
11 47 17
12 60 82
13 35 22
14 65 42
15 52 43
16 63 68
17 17 90
18 59 90
19 53 18
20 76 71
21 67 40
22 1 96
23 85 48
24 51 77
25 43 58
26 33 44
27 95 54
28 64 43
29 62 14
30 86 63
31 86 4
32 40 40
33 36 12
34 44 91
35 31 93
36 62 55
37 38 68
38 10 36
39 31 60
40 40 29
41 94 49
42 45 39
43 34 78
44 37 64
45 75 55
DEMAND_SECTION
1 0
2 10
3 30
4 10
5 10
6 10
7 20
8 20
9 20
10 10
11 10
12 30
13 10
14 10
15 10
16 10
17 10
18 20
19 10
20 20
21 20
22 30
23 10
24 30
25 10
26 10
27 10
28 20
29 10
30 10
31 10
32 10
33 10
34 20
35 20
36 10
37 10
38 10
39 20
40 10
41 10
42 10
43 10
44 30
45 10
DEPOT_SECTION
1
-1
EOF
