NAME : A-n60-k9
COMMENT : Augerat et al, Min no of trucks: 9, Optimal value: 1354
TYPE : CVRP
DIMENSION : 60
CAPACITY : 100
EDGE_WEIGHT_TYPE : EUC_2D
NODE_COORD_SECTION
1 38 46
2 59 46
3 96 42
4 47 61
5 26 15
6 66 6
7 96 7
8 37 25
9 68 92
10 78 84
11 82 28
12 93 90
13 74 42
14 60 20
15 78 58
16 36 48
17 45 42
18 29 30
19 42 18
20 48 73
21 25 5
22 52 42
23 39 56
24 62 48
25 54 69
26 82 53
27 6 68
28 95 30
29 51 39
30 63 24
31 5 93
32 82 68
33 76 52
34 63 78
35 71 71
36 52 36
37 65 93
38 45 26
39 66 81
40 4 36
41 30 37
42 35 10
43 45 37
44 15 75
45 72 56
46 2 78
47 56 86
48 15 45
49 34 63
50 31 21
51 62 27
52 42 81
53 83 12
54 25 65
55 82 92
56 19 56
57 41 96
58 61 2
59 75 34
60 70 61
DEMAND_SECTION
1 0
2 16
3 18
4 1
5 13
6 8
7 16
8 19
9 2
10 14
11 8
12 12
13 4
14 4
15 12
16 2
17 19
18 23
19 7
20 2
21 10
22 15
23 4
24 14
25 7
26 3
27 14
28 11
29 12
30 22
31 23
32 11
33 3
34 1
35 6
36 7
37 6
38 1
39 10
40 14
41 11
42 3
43 12
44 7
45 2
46 15
47 1
48 11
49 8
50 8
51 1
52 7
53 9
54 13
55 8
56 1
57 8
58 3
59 9
60 10
DEPOT_SECTION
1
-1
EOF
